s td 110 11 120
b 1 1 2 13
b 2 11 12 24
b 3 97 109 110
b 4 108 119 120
b 5 2 3 13 14
b 6 10 11 23 24
b 7 3 4 15 28 41 54 67 80 93 106 117
b 8 4 15 17 28 41 54 67 80 93 106 117
b 9 4 17 28 30 41 54 67 80 93 106 117
b 10 4 17 30 41 43 54 67 80 93 106 117
b 11 4 17 30 43 54 56 67 80 93 106 117
b 12 4 17 30 43 56 67 69 80 93 106 117
b 13 4 17 30 43 56 69 80 82 93 106 117
b 14 4 17 30 43 56 69 82 93 95 106 117
b 15 4 17 30 43 56 69 82 95 96 106 117
b 16 4 17 30 43 56 69 82 83 95 96
b 17 4 17 30 43 56 69 70 82 83 96
b 18 4 17 30 43 56 57 69 70 83 96
b 19 4 17 30 43 44 56 57 70 83 96
b 20 4 17 30 31 43 44 57 70 83 96
b 21 4 17 18 30 31 44 57 70 83 96
b 22 4 7 17 18 31 44 57 70 83 96
b 23 4 6 7 17 18
b 24 4 5 6 17
b 25 7 18 20 31 44 57 70 83 96
b 26 7 20 31 33 44 57 70 83 96
b 27 7 20 33 44 46 57 70 83 96
b 28 7 20 33 46 57 59 70 83 96
b 29 7 20 33 46 48 59 70 83 96
b 30 7 9 20 33 46 48 59
b 31 7 8 9 20
b 32 9 20 22 33 46 48 59
b 33 9 22 33 35 46 48 59
b 34 9 22 24 35 48
b 35 9 22 23 24 35
b 36 9 10 22 23 24
b 37 24 35 36 48
b 38 22 33 34 35 46
b 39 35 46 47 48 59
b 40 9 20 21 22 33
b 41 48 59 70 72 83 96
b 42 48 59 60 72
b 43 59 70 71 72 83
b 44 72 83 84 96
b 45 46 57 58 59 70
b 46 33 44 45 46 57
b 47 20 31 32 33 44
b 48 7 18 19 20 31
b 49 95 96 106 117 119
b 50 95 96 106 107 119
b 51 106 117 118 119
b 52 82 93 94 95 106
b 53 69 80 81 82 93
b 54 56 67 68 69 80
b 55 43 54 55 56 67
b 56 30 41 42 43 54
b 57 17 28 29 30 41
b 58 4 15 16 17 28
b 59 3 15 28 41 54 67 80 93 104 106 117
b 60 3 15 28 41 54 67 80 91 93 104 117
b 61 3 15 28 41 54 67 78 80 91 104 117
b 62 3 15 28 41 54 65 67 78 91 104 117
b 63 3 15 28 41 52 54 65 78 91 104 117
b 64 3 15 28 39 41 52 65 78 91 104 117
b 65 3 15 26 28 39 52 65 78 91 104 117
b 66 3 15 25 26 39 52 65 78 91 104 117
b 67 3 14 15 25 26
b 68 3 13 14 25
b 69 25 26 39 52 65 78 91 104 116 117
b 70 25 26 39 52 65 78 91 103 104 116
b 71 25 26 39 52 65 78 90 91 103 116
b 72 25 26 39 52 65 77 78 90 103 116
b 73 25 26 39 52 64 65 77 90 103 116
b 74 25 26 39 51 52 64 77 90 103 116
b 75 25 26 38 39 51 64 77 90 103 116
b 76 25 38 51 64 77 90 103 114 116
b 77 25 38 51 64 77 90 101 103 114
b 78 25 38 51 64 77 88 90 101 114
b 79 25 38 51 64 75 77 88 101 114
b 80 25 38 49 51 64 75 88 101 114
b 81 25 37 38 49
b 82 38 49 51 62 64 75 88 101 114
b 83 38 49 50 51 62
b 84 49 62 73 75 88 101 114
b 85 49 61 62 73
b 86 62 73 75 86 88 101 114
b 87 62 73 74 75 86
b 88 73 75 86 88 99 101 114
b 89 73 86 88 99 101 111 114
b 90 73 86 98 99 111
b 91 73 85 86 98 111
b 92 85 98 110 111
b 93 88 99 100 101 111 114
b 94 100 101 111 112 114
b 95 101 112 113 114
b 96 75 86 87 88 99
b 97 51 62 63 64 75
b 98 64 75 76 77 88
b 99 77 88 89 90 101
b 100 90 101 102 103 114
b 101 103 114 115 116
b 102 15 26 27 28 39
b 103 28 39 40 41 52
b 104 41 52 53 54 65
b 105 54 65 66 67 78
b 106 67 78 79 80 91
b 107 80 91 92 93 104
b 108 93 104 105 106 117
b 109 85 97 98 110
b 110 96 107 108 119
1 5
2 6
3 109
4 110
5 68
6 36
7 8
7 59
8 9
8 58
9 10
9 57
10 11
10 56
11 12
11 55
12 13
12 54
13 14
13 53
14 15
14 52
15 16
15 49
16 17
17 18
18 19
19 20
20 21
21 22
22 23
22 25
23 24
25 26
25 48
26 27
26 47
27 28
27 46
28 29
28 45
29 30
29 41
30 31
30 32
32 33
32 40
33 34
33 38
33 39
34 35
34 37
35 36
41 42
41 43
41 44
49 50
49 51
50 110
59 60
59 108
60 61
60 107
61 62
61 106
62 63
62 105
63 64
63 104
64 65
64 103
65 66
65 102
66 67
66 69
67 68
69 70
70 71
71 72
72 73
73 74
74 75
75 76
76 77
76 101
77 78
77 100
78 79
78 99
79 80
79 98
80 81
80 82
82 83
82 84
82 97
84 85
84 86
86 87
86 88
88 89
88 96
89 90
89 93
90 91
91 92
92 109
93 94
94 95
